c FILE: v150_d30.dat

p edge 150 3353
e 1 2
e 1 4
e 1 8
e 1 22
e 1 29
e 1 32
e 1 38
e 1 40
e 1 47
e 1 50
e 1 51
e 1 63
e 1 73
e 1 80
e 1 96
e 1 99
e 1 125
e 1 131
e 1 140
e 1 142
e 1 146
e 2 3
e 2 6
e 2 7
e 2 8
e 2 11
e 2 12
e 2 18
e 2 22
e 2 23
e 2 25
e 2 32
e 2 37
e 2 38
e 2 42
e 2 44
e 2 52
e 2 55
e 2 57
e 2 58
e 2 62
e 2 67
e 2 69
e 2 73
e 2 75
e 2 76
e 2 78
e 2 80
e 2 82
e 2 83
e 2 93
e 2 94
e 2 100
e 2 102
e 2 105
e 2 108
e 2 109
e 2 111
e 2 115
e 2 118
e 2 121
e 2 124
e 2 125
e 2 128
e 2 131
e 2 133
e 2 134
e 2 138
e 2 142
e 2 143
e 2 146
e 3 4
e 3 5
e 3 6
e 3 13
e 3 14
e 3 15
e 3 16
e 3 27
e 3 28
e 3 30
e 3 34
e 3 37
e 3 41
e 3 44
e 3 45
e 3 47
e 3 48
e 3 53
e 3 58
e 3 63
e 3 66
e 3 68
e 3 71
e 3 75
e 3 77
e 3 85
e 3 94
e 3 97
e 3 100
e 3 101
e 3 102
e 3 103
e 3 105
e 3 109
e 3 111
e 3 114
e 3 115
e 3 116
e 3 121
e 3 125
e 3 126
e 3 129
e 3 130
e 3 134
e 3 136
e 3 140
e 3 142
e 3 143
e 3 147
e 4 5
e 4 10
e 4 11
e 4 15
e 4 17
e 4 18
e 4 21
e 4 27
e 4 34
e 4 36
e 4 39
e 4 41
e 4 42
e 4 43
e 4 44
e 4 45
e 4 46
e 4 49
e 4 50
e 4 51
e 4 61
e 4 62
e 4 67
e 4 74
e 4 75
e 4 77
e 4 82
e 4 91
e 4 92
e 4 96
e 4 99
e 4 105
e 4 111
e 4 118
e 4 119
e 4 126
e 4 127
e 4 129
e 4 133
e 4 136
e 4 138
e 4 139
e 4 141
e 4 144
e 5 6
e 5 7
e 5 19
e 5 20
e 5 21
e 5 23
e 5 29
e 5 31
e 5 33
e 5 34
e 5 35
e 5 36
e 5 48
e 5 51
e 5 52
e 5 54
e 5 55
e 5 66
e 5 68
e 5 69
e 5 79
e 5 82
e 5 85
e 5 89
e 5 90
e 5 91
e 5 99
e 5 104
e 5 105
e 5 107
e 5 109
e 5 115
e 5 117
e 5 121
e 5 123
e 5 125
e 5 127
e 5 130
e 5 133
e 5 134
e 5 139
e 5 142
e 5 146
e 5 147
e 5 148
e 6 7
e 6 8
e 6 11
e 6 12
e 6 23
e 6 30
e 6 31
e 6 34
e 6 35
e 6 39
e 6 41
e 6 48
e 6 49
e 6 50
e 6 55
e 6 56
e 6 60
e 6 63
e 6 64
e 6 66
e 6 67
e 6 68
e 6 71
e 6 80
e 6 83
e 6 86
e 6 91
e 6 93
e 6 95
e 6 97
e 6 98
e 6 101
e 6 107
e 6 112
e 6 114
e 6 115
e 6 116
e 6 117
e 6 119
e 6 120
e 6 132
e 6 140
e 7 8
e 7 11
e 7 16
e 7 30
e 7 34
e 7 38
e 7 40
e 7 42
e 7 45
e 7 46
e 7 47
e 7 52
e 7 56
e 7 57
e 7 58
e 7 59
e 7 61
e 7 63
e 7 66
e 7 69
e 7 74
e 7 79
e 7 82
e 7 83
e 7 86
e 7 87
e 7 92
e 7 95
e 7 109
e 7 111
e 7 116
e 7 119
e 7 124
e 7 125
e 7 137
e 7 141
e 7 149
e 8 9
e 8 10
e 8 15
e 8 24
e 8 26
e 8 30
e 8 31
e 8 32
e 8 33
e 8 34
e 8 35
e 8 37
e 8 40
e 8 47
e 8 50
e 8 51
e 8 54
e 8 56
e 8 58
e 8 59
e 8 60
e 8 63
e 8 64
e 8 67
e 8 68
e 8 72
e 8 76
e 8 79
e 8 93
e 8 95
e 8 96
e 8 98
e 8 99
e 8 105
e 8 111
e 8 112
e 8 113
e 8 116
e 8 117
e 8 120
e 8 124
e 8 127
e 8 129
e 8 130
e 8 132
e 8 133
e 8 142
e 8 144
e 8 148
e 8 150
e 9 10
e 9 11
e 9 12
e 9 13
e 9 17
e 9 21
e 9 27
e 9 29
e 9 30
e 9 38
e 9 41
e 9 51
e 9 53
e 9 54
e 9 56
e 9 59
e 9 60
e 9 65
e 9 66
e 9 68
e 9 71
e 9 74
e 9 75
e 9 85
e 9 87
e 9 91
e 9 99
e 9 105
e 9 116
e 9 122
e 9 123
e 9 125
e 9 126
e 9 128
e 9 129
e 9 134
e 9 138
e 9 141
e 9 142
e 9 150
e 10 11
e 10 15
e 10 16
e 10 19
e 10 20
e 10 25
e 10 33
e 10 39
e 10 43
e 10 44
e 10 48
e 10 56
e 10 59
e 10 61
e 10 66
e 10 70
e 10 72
e 10 75
e 10 80
e 10 83
e 10 84
e 10 92
e 10 93
e 10 94
e 10 108
e 10 111
e 10 113
e 10 115
e 10 120
e 10 121
e 10 126
e 10 128
e 10 131
e 10 134
e 10 135
e 10 138
e 10 139
e 10 140
e 10 142
e 11 12
e 11 17
e 11 19
e 11 20
e 11 21
e 11 23
e 11 25
e 11 29
e 11 30
e 11 33
e 11 34
e 11 37
e 11 39
e 11 40
e 11 44
e 11 50
e 11 53
e 11 59
e 11 63
e 11 66
e 11 69
e 11 72
e 11 83
e 11 86
e 11 95
e 11 97
e 11 100
e 11 101
e 11 103
e 11 105
e 11 107
e 11 113
e 11 115
e 11 116
e 11 125
e 11 135
e 11 136
e 11 138
e 11 140
e 11 141
e 11 146
e 11 150
e 12 13
e 12 14
e 12 15
e 12 17
e 12 20
e 12 21
e 12 24
e 12 25
e 12 50
e 12 52
e 12 58
e 12 59
e 12 66
e 12 67
e 12 68
e 12 69
e 12 74
e 12 78
e 12 81
e 12 82
e 12 87
e 12 94
e 12 98
e 12 100
e 12 105
e 12 106
e 12 107
e 12 110
e 12 111
e 12 112
e 12 113
e 12 114
e 12 117
e 12 118
e 12 120
e 12 124
e 12 127
e 12 128
e 12 129
e 12 135
e 12 140
e 12 141
e 12 144
e 13 14
e 13 18
e 13 20
e 13 21
e 13 22
e 13 24
e 13 26
e 13 36
e 13 37
e 13 38
e 13 39
e 13 50
e 13 53
e 13 54
e 13 57
e 13 59
e 13 61
e 13 68
e 13 69
e 13 70
e 13 74
e 13 75
e 13 76
e 13 79
e 13 84
e 13 89
e 13 90
e 13 96
e 13 98
e 13 99
e 13 100
e 13 101
e 13 102
e 13 107
e 13 109
e 13 113
e 13 115
e 13 118
e 13 122
e 13 124
e 13 126
e 13 127
e 13 130
e 13 132
e 13 136
e 13 142
e 13 144
e 13 148
e 13 149
e 14 15
e 14 18
e 14 21
e 14 35
e 14 36
e 14 37
e 14 39
e 14 41
e 14 43
e 14 46
e 14 49
e 14 53
e 14 54
e 14 59
e 14 60
e 14 61
e 14 67
e 14 69
e 14 74
e 14 78
e 14 84
e 14 85
e 14 88
e 14 89
e 14 90
e 14 92
e 14 98
e 14 103
e 14 115
e 14 116
e 14 118
e 14 121
e 14 125
e 14 127
e 14 131
e 14 133
e 14 135
e 14 141
e 14 148
e 14 149
e 15 16
e 15 26
e 15 27
e 15 29
e 15 32
e 15 35
e 15 37
e 15 39
e 15 44
e 15 47
e 15 50
e 15 51
e 15 54
e 15 60
e 15 62
e 15 63
e 15 69
e 15 76
e 15 79
e 15 86
e 15 91
e 15 94
e 15 95
e 15 96
e 15 98
e 15 99
e 15 101
e 15 105
e 15 109
e 15 114
e 15 116
e 15 119
e 15 122
e 15 127
e 15 133
e 15 135
e 15 136
e 15 142
e 15 144
e 15 149
e 16 17
e 16 20
e 16 21
e 16 24
e 16 28
e 16 31
e 16 32
e 16 34
e 16 35
e 16 37
e 16 42
e 16 44
e 16 46
e 16 49
e 16 55
e 16 58
e 16 60
e 16 62
e 16 63
e 16 66
e 16 69
e 16 71
e 16 73
e 16 74
e 16 77
e 16 78
e 16 83
e 16 84
e 16 88
e 16 89
e 16 90
e 16 92
e 16 95
e 16 96
e 16 99
e 16 111
e 16 112
e 16 116
e 16 120
e 16 123
e 16 125
e 16 126
e 16 131
e 16 132
e 16 133
e 16 135
e 16 136
e 16 137
e 16 138
e 16 139
e 16 144
e 16 149
e 17 18
e 17 20
e 17 23
e 17 24
e 17 27
e 17 31
e 17 32
e 17 34
e 17 38
e 17 42
e 17 49
e 17 53
e 17 59
e 17 62
e 17 71
e 17 76
e 17 83
e 17 85
e 17 86
e 17 91
e 17 95
e 17 107
e 17 108
e 17 111
e 17 112
e 17 117
e 17 119
e 17 123
e 17 125
e 17 128
e 17 132
e 17 137
e 17 138
e 17 142
e 17 144
e 17 146
e 17 147
e 17 148
e 18 19
e 18 29
e 18 31
e 18 34
e 18 37
e 18 40
e 18 41
e 18 45
e 18 49
e 18 52
e 18 54
e 18 67
e 18 68
e 18 70
e 18 72
e 18 75
e 18 78
e 18 79
e 18 84
e 18 85
e 18 88
e 18 93
e 18 98
e 18 100
e 18 102
e 18 103
e 18 105
e 18 107
e 18 110
e 18 114
e 18 119
e 18 122
e 18 125
e 18 130
e 18 131
e 18 134
e 18 136
e 18 137
e 18 138
e 18 140
e 18 143
e 18 147
e 18 148
e 19 20
e 19 24
e 19 25
e 19 27
e 19 39
e 19 43
e 19 44
e 19 48
e 19 53
e 19 54
e 19 55
e 19 71
e 19 74
e 19 81
e 19 84
e 19 91
e 19 100
e 19 106
e 19 109
e 19 110
e 19 111
e 19 113
e 19 132
e 19 134
e 19 142
e 19 143
e 19 144
e 19 147
e 19 148
e 19 149
e 20 21
e 20 24
e 20 36
e 20 40
e 20 42
e 20 44
e 20 46
e 20 47
e 20 49
e 20 56
e 20 57
e 20 60
e 20 66
e 20 77
e 20 78
e 20 82
e 20 83
e 20 86
e 20 87
e 20 90
e 20 93
e 20 95
e 20 98
e 20 100
e 20 102
e 20 107
e 20 110
e 20 112
e 20 122
e 20 124
e 20 126
e 20 129
e 20 130
e 20 134
e 20 141
e 20 142
e 21 22
e 21 27
e 21 28
e 21 29
e 21 37
e 21 39
e 21 43
e 21 56
e 21 57
e 21 58
e 21 62
e 21 65
e 21 71
e 21 78
e 21 89
e 21 90
e 21 95
e 21 96
e 21 97
e 21 100
e 21 103
e 21 106
e 21 108
e 21 121
e 21 122
e 21 124
e 21 125
e 21 126
e 21 131
e 21 139
e 21 141
e 22 23
e 22 25
e 22 27
e 22 28
e 22 30
e 22 40
e 22 43
e 22 45
e 22 49
e 22 53
e 22 57
e 22 58
e 22 59
e 22 64
e 22 65
e 22 72
e 22 77
e 22 78
e 22 79
e 22 83
e 22 86
e 22 88
e 22 89
e 22 90
e 22 93
e 22 109
e 22 113
e 22 115
e 22 116
e 22 117
e 22 125
e 22 128
e 22 129
e 22 130
e 22 140
e 22 143
e 22 144
e 22 146
e 22 149
e 23 24
e 23 25
e 23 28
e 23 30
e 23 32
e 23 37
e 23 38
e 23 42
e 23 48
e 23 49
e 23 50
e 23 51
e 23 60
e 23 61
e 23 62
e 23 66
e 23 69
e 23 71
e 23 74
e 23 79
e 23 83
e 23 85
e 23 87
e 23 100
e 23 103
e 23 105
e 23 113
e 23 114
e 23 115
e 23 117
e 23 118
e 23 119
e 23 120
e 23 122
e 23 128
e 23 129
e 23 133
e 23 134
e 23 137
e 23 140
e 23 142
e 23 145
e 23 146
e 24 25
e 24 26
e 24 32
e 24 34
e 24 35
e 24 41
e 24 54
e 24 57
e 24 60
e 24 63
e 24 64
e 24 65
e 24 68
e 24 72
e 24 78
e 24 79
e 24 81
e 24 82
e 24 88
e 24 89
e 24 92
e 24 95
e 24 96
e 24 100
e 24 105
e 24 107
e 24 109
e 24 111
e 24 112
e 24 117
e 24 118
e 24 119
e 24 122
e 24 131
e 24 132
e 24 133
e 24 144
e 24 145
e 24 147
e 24 148
e 25 26
e 25 30
e 25 33
e 25 34
e 25 36
e 25 39
e 25 40
e 25 41
e 25 43
e 25 45
e 25 47
e 25 49
e 25 51
e 25 52
e 25 53
e 25 55
e 25 56
e 25 62
e 25 65
e 25 73
e 25 74
e 25 79
e 25 87
e 25 89
e 25 94
e 25 96
e 25 97
e 25 102
e 25 109
e 25 110
e 25 111
e 25 113
e 25 117
e 25 118
e 25 134
e 25 137
e 25 139
e 25 142
e 25 146
e 25 150
e 26 27
e 26 28
e 26 30
e 26 31
e 26 41
e 26 46
e 26 48
e 26 50
e 26 61
e 26 62
e 26 71
e 26 76
e 26 81
e 26 83
e 26 86
e 26 87
e 26 94
e 26 98
e 26 99
e 26 100
e 26 101
e 26 104
e 26 105
e 26 107
e 26 109
e 26 113
e 26 114
e 26 116
e 26 120
e 26 125
e 26 126
e 26 127
e 26 133
e 26 134
e 26 135
e 26 138
e 26 141
e 26 143
e 26 147
e 26 148
e 26 149
e 26 150
e 27 28
e 27 36
e 27 37
e 27 38
e 27 39
e 27 40
e 27 43
e 27 47
e 27 48
e 27 52
e 27 58
e 27 67
e 27 68
e 27 69
e 27 70
e 27 75
e 27 76
e 27 77
e 27 79
e 27 84
e 27 87
e 27 103
e 27 104
e 27 106
e 27 114
e 27 115
e 27 117
e 27 121
e 27 127
e 27 128
e 27 131
e 27 134
e 27 136
e 27 140
e 27 143
e 27 148
e 27 150
e 28 29
e 28 30
e 28 33
e 28 38
e 28 44
e 28 47
e 28 53
e 28 55
e 28 59
e 28 65
e 28 67
e 28 71
e 28 77
e 28 85
e 28 88
e 28 94
e 28 96
e 28 98
e 28 99
e 28 101
e 28 105
e 28 107
e 28 108
e 28 111
e 28 112
e 28 122
e 28 124
e 28 129
e 28 132
e 28 139
e 28 140
e 28 142
e 28 145
e 28 147
e 28 148
e 29 30
e 29 33
e 29 35
e 29 36
e 29 37
e 29 55
e 29 70
e 29 71
e 29 76
e 29 77
e 29 80
e 29 83
e 29 94
e 29 95
e 29 108
e 29 111
e 29 117
e 29 119
e 29 121
e 29 127
e 29 133
e 29 141
e 29 146
e 29 148
e 30 31
e 30 32
e 30 33
e 30 34
e 30 35
e 30 37
e 30 40
e 30 43
e 30 47
e 30 49
e 30 50
e 30 51
e 30 53
e 30 55
e 30 56
e 30 59
e 30 67
e 30 68
e 30 69
e 30 70
e 30 71
e 30 72
e 30 73
e 30 84
e 30 85
e 30 86
e 30 87
e 30 91
e 30 92
e 30 93
e 30 95
e 30 104
e 30 106
e 30 119
e 30 122
e 30 123
e 30 125
e 30 127
e 30 134
e 31 32
e 31 36
e 31 39
e 31 42
e 31 44
e 31 48
e 31 49
e 31 50
e 31 55
e 31 60
e 31 61
e 31 62
e 31 63
e 31 77
e 31 78
e 31 80
e 31 85
e 31 86
e 31 87
e 31 91
e 31 94
e 31 96
e 31 97
e 31 101
e 31 106
e 31 107
e 31 110
e 31 112
e 31 117
e 31 118
e 31 120
e 31 126
e 31 127
e 31 133
e 31 139
e 31 147
e 32 33
e 32 35
e 32 40
e 32 45
e 32 46
e 32 49
e 32 61
e 32 63
e 32 67
e 32 68
e 32 69
e 32 71
e 32 75
e 32 80
e 32 82
e 32 88
e 32 94
e 32 96
e 32 106
e 32 117
e 32 120
e 32 124
e 32 126
e 32 129
e 32 130
e 32 135
e 32 137
e 32 138
e 32 145
e 32 149
e 33 34
e 33 35
e 33 37
e 33 38
e 33 41
e 33 45
e 33 47
e 33 53
e 33 55
e 33 60
e 33 64
e 33 66
e 33 70
e 33 74
e 33 82
e 33 83
e 33 84
e 33 85
e 33 86
e 33 87
e 33 90
e 33 91
e 33 93
e 33 94
e 33 100
e 33 103
e 33 104
e 33 105
e 33 106
e 33 107
e 33 109
e 33 115
e 33 118
e 33 119
e 33 125
e 33 128
e 33 132
e 33 139
e 33 147
e 34 35
e 34 36
e 34 42
e 34 43
e 34 45
e 34 47
e 34 49
e 34 51
e 34 58
e 34 59
e 34 64
e 34 65
e 34 66
e 34 69
e 34 73
e 34 75
e 34 79
e 34 82
e 34 86
e 34 87
e 34 88
e 34 92
e 34 95
e 34 108
e 34 109
e 34 110
e 34 111
e 34 114
e 34 117
e 34 119
e 34 122
e 34 123
e 34 124
e 34 126
e 34 128
e 34 129
e 34 132
e 34 133
e 34 134
e 34 139
e 34 140
e 34 143
e 34 144
e 35 36
e 35 37
e 35 38
e 35 39
e 35 41
e 35 43
e 35 44
e 35 49
e 35 50
e 35 59
e 35 63
e 35 64
e 35 69
e 35 71
e 35 74
e 35 79
e 35 82
e 35 83
e 35 95
e 35 96
e 35 99
e 35 101
e 35 102
e 35 104
e 35 111
e 35 114
e 35 119
e 35 120
e 35 123
e 35 128
e 35 134
e 35 139
e 35 142
e 36 37
e 36 38
e 36 39
e 36 40
e 36 43
e 36 49
e 36 52
e 36 57
e 36 58
e 36 59
e 36 61
e 36 64
e 36 65
e 36 66
e 36 72
e 36 73
e 36 75
e 36 76
e 36 95
e 36 100
e 36 105
e 36 119
e 36 120
e 36 123
e 36 126
e 36 134
e 36 136
e 36 138
e 36 140
e 36 144
e 36 145
e 36 146
e 37 38
e 37 40
e 37 41
e 37 46
e 37 48
e 37 52
e 37 57
e 37 59
e 37 61
e 37 63
e 37 69
e 37 71
e 37 77
e 37 81
e 37 83
e 37 85
e 37 86
e 37 91
e 37 100
e 37 102
e 37 103
e 37 105
e 37 107
e 37 111
e 37 113
e 37 114
e 37 118
e 37 122
e 37 123
e 37 132
e 37 136
e 37 137
e 37 138
e 37 142
e 37 143
e 37 144
e 37 145
e 37 148
e 37 149
e 38 39
e 38 43
e 38 44
e 38 47
e 38 48
e 38 53
e 38 58
e 38 60
e 38 62
e 38 63
e 38 67
e 38 70
e 38 71
e 38 72
e 38 73
e 38 78
e 38 86
e 38 94
e 38 95
e 38 100
e 38 103
e 38 104
e 38 107
e 38 109
e 38 128
e 38 135
e 38 137
e 38 141
e 38 144
e 38 145
e 38 148
e 38 149
e 39 40
e 39 42
e 39 46
e 39 49
e 39 50
e 39 54
e 39 58
e 39 60
e 39 63
e 39 64
e 39 66
e 39 70
e 39 71
e 39 73
e 39 79
e 39 81
e 39 85
e 39 86
e 39 87
e 39 88
e 39 97
e 39 107
e 39 108
e 39 109
e 39 110
e 39 111
e 39 117
e 39 118
e 39 119
e 39 121
e 39 122
e 39 124
e 39 129
e 39 142
e 39 143
e 39 147
e 39 148
e 39 149
e 40 41
e 40 42
e 40 47
e 40 49
e 40 50
e 40 51
e 40 57
e 40 62
e 40 64
e 40 65
e 40 66
e 40 68
e 40 69
e 40 71
e 40 72
e 40 90
e 40 93
e 40 96
e 40 98
e 40 99
e 40 100
e 40 103
e 40 104
e 40 106
e 40 107
e 40 109
e 40 114
e 40 115
e 40 118
e 40 122
e 40 123
e 40 124
e 40 125
e 40 126
e 40 135
e 40 136
e 40 137
e 40 138
e 40 139
e 40 142
e 41 42
e 41 45
e 41 47
e 41 49
e 41 50
e 41 53
e 41 58
e 41 62
e 41 64
e 41 65
e 41 66
e 41 67
e 41 69
e 41 71
e 41 72
e 41 77
e 41 79
e 41 84
e 41 93
e 41 95
e 41 97
e 41 99
e 41 100
e 41 104
e 41 107
e 41 109
e 41 118
e 41 126
e 41 127
e 41 128
e 41 132
e 41 136
e 41 139
e 41 141
e 42 43
e 42 47
e 42 50
e 42 51
e 42 52
e 42 53
e 42 55
e 42 56
e 42 57
e 42 58
e 42 60
e 42 65
e 42 67
e 42 72
e 42 73
e 42 86
e 42 88
e 42 89
e 42 93
e 42 95
e 42 98
e 42 101
e 42 105
e 42 116
e 42 120
e 42 123
e 42 130
e 42 131
e 42 134
e 42 145
e 42 146
e 43 44
e 43 51
e 43 53
e 43 58
e 43 59
e 43 64
e 43 65
e 43 67
e 43 70
e 43 71
e 43 73
e 43 75
e 43 78
e 43 79
e 43 81
e 43 85
e 43 89
e 43 90
e 43 92
e 43 94
e 43 96
e 43 97
e 43 106
e 43 107
e 43 113
e 43 127
e 43 134
e 43 139
e 43 140
e 43 141
e 43 143
e 43 144
e 43 149
e 44 45
e 44 47
e 44 53
e 44 55
e 44 56
e 44 57
e 44 67
e 44 69
e 44 71
e 44 75
e 44 76
e 44 78
e 44 79
e 44 89
e 44 90
e 44 91
e 44 98
e 44 100
e 44 101
e 44 103
e 44 104
e 44 105
e 44 108
e 44 114
e 44 115
e 44 121
e 44 126
e 44 131
e 44 132
e 44 133
e 44 139
e 44 141
e 44 146
e 44 148
e 45 46
e 45 48
e 45 51
e 45 52
e 45 53
e 45 59
e 45 64
e 45 66
e 45 73
e 45 75
e 45 79
e 45 80
e 45 85
e 45 93
e 45 105
e 45 110
e 45 117
e 45 123
e 45 124
e 45 131
e 45 136
e 45 137
e 45 141
e 45 142
e 45 149
e 46 47
e 46 51
e 46 52
e 46 54
e 46 55
e 46 58
e 46 59
e 46 63
e 46 65
e 46 66
e 46 69
e 46 74
e 46 78
e 46 83
e 46 85
e 46 86
e 46 87
e 46 98
e 46 101
e 46 107
e 46 110
e 46 120
e 46 124
e 46 125
e 46 126
e 46 132
e 46 133
e 46 143
e 47 48
e 47 51
e 47 57
e 47 59
e 47 60
e 47 61
e 47 62
e 47 63
e 47 68
e 47 71
e 47 73
e 47 75
e 47 79
e 47 83
e 47 85
e 47 87
e 47 88
e 47 91
e 47 96
e 47 102
e 47 105
e 47 110
e 47 111
e 47 113
e 47 114
e 47 117
e 47 119
e 47 120
e 47 127
e 47 132
e 47 141
e 47 143
e 47 144
e 48 49
e 48 50
e 48 53
e 48 55
e 48 58
e 48 63
e 48 65
e 48 67
e 48 77
e 48 81
e 48 84
e 48 91
e 48 98
e 48 99
e 48 101
e 48 106
e 48 111
e 48 114
e 48 115
e 48 116
e 48 117
e 48 119
e 48 120
e 48 123
e 48 124
e 48 125
e 48 127
e 48 129
e 48 133
e 48 136
e 48 143
e 48 146
e 48 148
e 49 50
e 49 52
e 49 55
e 49 58
e 49 60
e 49 63
e 49 65
e 49 72
e 49 77
e 49 81
e 49 83
e 49 88
e 49 89
e 49 95
e 49 96
e 49 101
e 49 102
e 49 103
e 49 104
e 49 107
e 49 112
e 49 114
e 49 117
e 49 118
e 49 120
e 49 121
e 49 122
e 49 123
e 49 125
e 49 128
e 49 132
e 49 134
e 49 143
e 50 51
e 50 53
e 50 57
e 50 59
e 50 63
e 50 65
e 50 68
e 50 78
e 50 79
e 50 81
e 50 85
e 50 89
e 50 90
e 50 97
e 50 98
e 50 99
e 50 101
e 50 103
e 50 105
e 50 107
e 50 111
e 50 113
e 50 114
e 50 117
e 50 118
e 50 119
e 50 135
e 50 138
e 50 139
e 50 142
e 51 52
e 51 56
e 51 58
e 51 63
e 51 65
e 51 67
e 51 69
e 51 71
e 51 73
e 51 80
e 51 84
e 51 87
e 51 92
e 51 94
e 51 95
e 51 96
e 51 98
e 51 99
e 51 103
e 51 107
e 51 114
e 51 123
e 51 125
e 51 136
e 51 137
e 51 139
e 51 140
e 51 143
e 51 148
e 51 149
e 52 53
e 52 57
e 52 59
e 52 62
e 52 68
e 52 69
e 52 72
e 52 78
e 52 82
e 52 86
e 52 87
e 52 92
e 52 94
e 52 98
e 52 99
e 52 105
e 52 111
e 52 116
e 52 124
e 52 131
e 52 135
e 52 138
e 52 146
e 53 54
e 53 59
e 53 70
e 53 73
e 53 75
e 53 77
e 53 78
e 53 81
e 53 89
e 53 91
e 53 95
e 53 96
e 53 97
e 53 113
e 53 116
e 53 118
e 53 119
e 53 125
e 53 126
e 53 131
e 53 132
e 53 136
e 53 141
e 53 143
e 53 144
e 53 146
e 53 147
e 53 149
e 54 55
e 54 57
e 54 63
e 54 64
e 54 68
e 54 69
e 54 71
e 54 72
e 54 74
e 54 75
e 54 78
e 54 79
e 54 81
e 54 82
e 54 83
e 54 87
e 54 95
e 54 98
e 54 101
e 54 103
e 54 109
e 54 111
e 54 119
e 54 122
e 54 123
e 54 124
e 54 125
e 54 135
e 54 136
e 54 138
e 54 145
e 55 56
e 55 58
e 55 64
e 55 71
e 55 73
e 55 75
e 55 76
e 55 82
e 55 83
e 55 84
e 55 86
e 55 93
e 55 95
e 55 104
e 55 106
e 55 110
e 55 112
e 55 113
e 55 116
e 55 117
e 55 118
e 55 124
e 55 132
e 55 142
e 55 143
e 55 144
e 55 145
e 55 146
e 56 57
e 56 60
e 56 63
e 56 65
e 56 74
e 56 75
e 56 78
e 56 81
e 56 90
e 56 92
e 56 94
e 56 96
e 56 98
e 56 101
e 56 107
e 56 108
e 56 109
e 56 114
e 56 118
e 56 120
e 56 121
e 56 122
e 56 123
e 56 126
e 56 127
e 56 131
e 56 133
e 56 139
e 56 144
e 56 145
e 56 146
e 57 58
e 57 59
e 57 62
e 57 64
e 57 65
e 57 72
e 57 78
e 57 82
e 57 88
e 57 89
e 57 90
e 57 92
e 57 95
e 57 98
e 57 99
e 57 102
e 57 103
e 57 104
e 57 106
e 57 107
e 57 108
e 57 111
e 57 113
e 57 118
e 57 119
e 57 128
e 57 134
e 57 135
e 57 136
e 57 143
e 57 144
e 57 146
e 57 147
e 57 148
e 58 59
e 58 63
e 58 78
e 58 81
e 58 85
e 58 87
e 58 89
e 58 90
e 58 95
e 58 96
e 58 105
e 58 112
e 58 115
e 58 117
e 58 124
e 58 129
e 58 130
e 58 132
e 58 134
e 58 136
e 58 138
e 58 145
e 58 146
e 58 149
e 58 150
e 59 60
e 59 78
e 59 81
e 59 82
e 59 85
e 59 87
e 59 93
e 59 94
e 59 100
e 59 101
e 59 105
e 59 106
e 59 107
e 59 108
e 59 109
e 59 111
e 59 114
e 59 118
e 59 124
e 59 128
e 59 137
e 59 138
e 59 141
e 60 61
e 60 63
e 60 65
e 60 67
e 60 70
e 60 74
e 60 76
e 60 77
e 60 82
e 60 86
e 60 87
e 60 89
e 60 91
e 60 94
e 60 95
e 60 96
e 60 97
e 60 100
e 60 114
e 60 116
e 60 118
e 60 122
e 60 123
e 60 125
e 60 130
e 60 139
e 60 140
e 60 144
e 60 147
e 60 150
e 61 62
e 61 68
e 61 71
e 61 76
e 61 79
e 61 81
e 61 90
e 61 94
e 61 95
e 61 104
e 61 108
e 61 114
e 61 115
e 61 116
e 61 117
e 61 120
e 61 121
e 61 126
e 61 132
e 61 135
e 61 136
e 61 142
e 61 148
e 62 63
e 62 68
e 62 69
e 62 70
e 62 73
e 62 75
e 62 76
e 62 78
e 62 84
e 62 95
e 62 99
e 62 102
e 62 111
e 62 114
e 62 122
e 62 125
e 62 130
e 62 132
e 62 134
e 62 136
e 62 137
e 63 64
e 63 71
e 63 74
e 63 77
e 63 82
e 63 84
e 63 85
e 63 88
e 63 93
e 63 105
e 63 108
e 63 113
e 63 114
e 63 115
e 63 125
e 63 126
e 63 132
e 63 133
e 63 137
e 63 140
e 63 142
e 63 143
e 63 145
e 63 146
e 63 147
e 63 148
e 63 149
e 63 150
e 64 65
e 64 66
e 64 73
e 64 74
e 64 79
e 64 88
e 64 94
e 64 95
e 64 102
e 64 110
e 64 115
e 64 117
e 64 119
e 64 121
e 64 129
e 64 131
e 64 133
e 64 136
e 64 137
e 64 139
e 64 141
e 64 146
e 64 147
e 65 66
e 65 68
e 65 76
e 65 77
e 65 78
e 65 79
e 65 85
e 65 88
e 65 90
e 65 92
e 65 95
e 65 96
e 65 101
e 65 103
e 65 105
e 65 107
e 65 110
e 65 111
e 65 117
e 65 119
e 65 126
e 65 129
e 65 130
e 65 133
e 65 134
e 65 135
e 65 147
e 66 67
e 66 68
e 66 69
e 66 72
e 66 74
e 66 75
e 66 79
e 66 86
e 66 87
e 66 90
e 66 93
e 66 94
e 66 103
e 66 104
e 66 109
e 66 111
e 66 115
e 66 116
e 66 123
e 66 127
e 66 130
e 66 133
e 66 136
e 66 139
e 66 143
e 67 68
e 67 74
e 67 75
e 67 76
e 67 83
e 67 85
e 67 86
e 67 87
e 67 96
e 67 103
e 67 105
e 67 111
e 67 112
e 67 117
e 67 118
e 67 119
e 67 120
e 67 131
e 67 133
e 67 139
e 67 140
e 67 141
e 67 144
e 67 148
e 68 69
e 68 70
e 68 74
e 68 75
e 68 79
e 68 82
e 68 83
e 68 84
e 68 94
e 68 99
e 68 104
e 68 106
e 68 108
e 68 115
e 68 121
e 68 125
e 68 127
e 68 136
e 68 140
e 68 141
e 68 142
e 68 144
e 68 146
e 68 147
e 68 148
e 69 70
e 69 73
e 69 82
e 69 95
e 69 101
e 69 104
e 69 108
e 69 129
e 69 130
e 69 131
e 69 135
e 69 143
e 69 145
e 69 146
e 69 147
e 70 71
e 70 72
e 70 74
e 70 75
e 70 79
e 70 80
e 70 82
e 70 86
e 70 92
e 70 93
e 70 94
e 70 95
e 70 96
e 70 98
e 70 100
e 70 106
e 70 108
e 70 115
e 70 141
e 70 143
e 71 72
e 71 73
e 71 74
e 71 76
e 71 81
e 71 83
e 71 85
e 71 92
e 71 94
e 71 95
e 71 96
e 71 97
e 71 100
e 71 104
e 71 117
e 71 131
e 71 132
e 71 136
e 71 142
e 71 143
e 71 146
e 71 147
e 71 149
e 71 150
e 72 73
e 72 75
e 72 78
e 72 79
e 72 80
e 72 82
e 72 86
e 72 88
e 72 90
e 72 93
e 72 94
e 72 95
e 72 98
e 72 99
e 72 106
e 72 113
e 72 123
e 72 126
e 72 128
e 72 130
e 72 146
e 73 74
e 73 77
e 73 79
e 73 80
e 73 85
e 73 86
e 73 88
e 73 92
e 73 95
e 73 98
e 73 99
e 73 101
e 73 105
e 73 107
e 73 111
e 73 113
e 73 118
e 73 121
e 73 122
e 73 124
e 73 130
e 73 131
e 73 133
e 73 139
e 73 140
e 73 149
e 74 75
e 74 76
e 74 79
e 74 85
e 74 94
e 74 95
e 74 96
e 74 100
e 74 101
e 74 104
e 74 106
e 74 110
e 74 111
e 74 119
e 74 120
e 74 122
e 74 124
e 74 125
e 74 132
e 74 133
e 74 134
e 74 137
e 74 145
e 74 146
e 75 76
e 75 79
e 75 80
e 75 82
e 75 86
e 75 89
e 75 94
e 75 99
e 75 103
e 75 105
e 75 106
e 75 108
e 75 114
e 75 118
e 75 120
e 75 123
e 75 126
e 75 132
e 75 133
e 75 137
e 75 139
e 75 141
e 75 144
e 75 145
e 75 146
e 75 147
e 75 148
e 76 77
e 76 78
e 76 84
e 76 86
e 76 89
e 76 93
e 76 96
e 76 98
e 76 101
e 76 103
e 76 105
e 76 109
e 76 111
e 76 112
e 76 115
e 76 124
e 76 125
e 76 129
e 76 138
e 76 140
e 76 145
e 76 149
e 77 78
e 77 81
e 77 84
e 77 85
e 77 86
e 77 94
e 77 97
e 77 99
e 77 100
e 77 101
e 77 108
e 77 110
e 77 121
e 77 122
e 77 126
e 77 127
e 77 135
e 77 136
e 77 141
e 78 79
e 78 80
e 78 81
e 78 83
e 78 86
e 78 88
e 78 104
e 78 105
e 78 109
e 78 112
e 78 120
e 78 121
e 78 123
e 78 134
e 78 136
e 78 139
e 78 144
e 79 80
e 79 83
e 79 88
e 79 94
e 79 96
e 79 97
e 79 105
e 79 106
e 79 107
e 79 113
e 79 119
e 79 120
e 79 121
e 79 122
e 79 126
e 79 128
e 79 132
e 79 133
e 79 137
e 79 142
e 79 143
e 79 145
e 79 147
e 80 81
e 80 82
e 80 83
e 80 84
e 80 88
e 80 97
e 80 102
e 80 105
e 80 110
e 80 115
e 80 116
e 80 120
e 80 121
e 80 126
e 80 130
e 80 132
e 80 133
e 80 134
e 80 137
e 80 145
e 80 146
e 80 147
e 80 149
e 81 82
e 81 85
e 81 86
e 81 88
e 81 90
e 81 94
e 81 96
e 81 100
e 81 101
e 81 104
e 81 112
e 81 115
e 81 117
e 81 123
e 81 126
e 81 130
e 81 140
e 81 143
e 81 147
e 82 83
e 82 87
e 82 88
e 82 91
e 82 94
e 82 98
e 82 102
e 82 105
e 82 107
e 82 110
e 82 111
e 82 112
e 82 116
e 82 117
e 82 118
e 82 119
e 82 121
e 82 125
e 82 131
e 82 137
e 82 139
e 82 140
e 82 141
e 82 148
e 82 149
e 83 84
e 83 89
e 83 90
e 83 91
e 83 93
e 83 95
e 83 97
e 83 98
e 83 99
e 83 103
e 83 108
e 83 112
e 83 121
e 83 122
e 83 123
e 83 128
e 83 133
e 83 137
e 83 140
e 83 144
e 83 148
e 84 85
e 84 88
e 84 90
e 84 95
e 84 100
e 84 107
e 84 108
e 84 124
e 84 127
e 84 130
e 84 131
e 84 135
e 84 136
e 84 145
e 84 146
e 84 149
e 85 86
e 85 94
e 85 96
e 85 97
e 85 99
e 85 109
e 85 117
e 85 120
e 85 122
e 85 123
e 85 126
e 85 129
e 85 134
e 85 135
e 85 136
e 85 137
e 85 138
e 85 140
e 85 142
e 85 147
e 86 87
e 86 91
e 86 95
e 86 97
e 86 98
e 86 104
e 86 113
e 86 117
e 86 119
e 86 123
e 86 135
e 86 147
e 86 149
e 87 88
e 87 90
e 87 96
e 87 101
e 87 107
e 87 109
e 87 110
e 87 117
e 87 121
e 87 124
e 87 131
e 87 133
e 87 138
e 87 146
e 87 148
e 87 149
e 88 89
e 88 91
e 88 95
e 88 100
e 88 101
e 88 104
e 88 105
e 88 108
e 88 110
e 88 113
e 88 124
e 88 126
e 88 133
e 88 134
e 88 138
e 88 149
e 89 90
e 89 96
e 89 97
e 89 98
e 89 99
e 89 106
e 89 107
e 89 111
e 89 115
e 89 118
e 89 129
e 89 130
e 89 131
e 89 139
e 89 140
e 89 143
e 89 146
e 89 147
e 89 149
e 89 150
e 90 91
e 90 92
e 90 96
e 90 101
e 90 102
e 90 104
e 90 105
e 90 108
e 90 110
e 90 114
e 90 117
e 90 119
e 90 120
e 90 123
e 90 126
e 90 134
e 90 140
e 90 141
e 90 142
e 90 143
e 90 145
e 90 148
e 90 149
e 91 92
e 91 98
e 91 100
e 91 101
e 91 102
e 91 105
e 91 106
e 91 109
e 91 112
e 91 128
e 91 131
e 91 134
e 91 135
e 91 137
e 91 145
e 91 150
e 92 93
e 92 95
e 92 101
e 92 102
e 92 106
e 92 111
e 92 113
e 92 118
e 92 119
e 92 120
e 92 130
e 92 132
e 92 134
e 92 137
e 92 139
e 92 141
e 92 146
e 92 147
e 93 94
e 93 96
e 93 98
e 93 100
e 93 102
e 93 110
e 93 112
e 93 117
e 93 118
e 93 120
e 93 124
e 93 127
e 93 132
e 93 134
e 93 137
e 93 143
e 93 147
e 94 95
e 94 102
e 94 103
e 94 105
e 94 106
e 94 107
e 94 108
e 94 109
e 94 110
e 94 112
e 94 115
e 94 116
e 94 119
e 94 121
e 94 126
e 94 127
e 94 129
e 94 131
e 94 133
e 94 138
e 94 139
e 94 140
e 94 143
e 94 148
e 95 96
e 95 105
e 95 108
e 95 109
e 95 110
e 95 112
e 95 120
e 95 122
e 95 123
e 95 126
e 95 131
e 95 135
e 95 141
e 95 143
e 95 145
e 95 149
e 96 97
e 96 101
e 96 104
e 96 106
e 96 115
e 96 116
e 96 119
e 96 122
e 96 123
e 96 127
e 96 128
e 96 130
e 96 140
e 96 144
e 96 146
e 97 98
e 97 99
e 97 100
e 97 110
e 97 114
e 97 121
e 97 125
e 97 129
e 97 132
e 97 137
e 97 138
e 97 139
e 97 140
e 97 144
e 97 147
e 97 148
e 98 99
e 98 102
e 98 115
e 98 119
e 98 122
e 98 136
e 98 140
e 98 143
e 98 144
e 98 145
e 98 149
e 99 100
e 99 104
e 99 113
e 99 120
e 99 122
e 99 124
e 99 131
e 99 132
e 99 135
e 99 136
e 99 139
e 99 140
e 99 150
e 100 101
e 100 102
e 100 108
e 100 115
e 100 119
e 100 122
e 100 126
e 100 128
e 100 131
e 100 132
e 100 136
e 100 137
e 100 146
e 101 102
e 101 103
e 101 104
e 101 106
e 101 116
e 101 118
e 101 119
e 101 121
e 101 123
e 101 138
e 101 139
e 101 146
e 102 103
e 102 104
e 102 111
e 102 117
e 102 118
e 102 121
e 102 122
e 102 125
e 102 127
e 102 129
e 102 132
e 102 133
e 102 136
e 102 139
e 102 140
e 102 142
e 102 143
e 102 145
e 103 104
e 103 105
e 103 107
e 103 109
e 103 112
e 103 120
e 103 123
e 103 141
e 103 147
e 103 148
e 103 150
e 104 105
e 104 108
e 104 110
e 104 111
e 104 112
e 104 116
e 104 121
e 104 127
e 104 135
e 104 136
e 104 137
e 104 144
e 104 148
e 105 106
e 105 111
e 105 112
e 105 118
e 105 124
e 105 126
e 105 127
e 105 128
e 105 129
e 105 132
e 105 134
e 105 136
e 105 138
e 105 140
e 105 148
e 105 149
e 106 107
e 106 109
e 106 110
e 106 113
e 106 126
e 106 129
e 106 133
e 106 136
e 106 139
e 106 141
e 106 145
e 107 108
e 107 109
e 107 111
e 107 116
e 107 120
e 107 125
e 107 127
e 107 128
e 107 134
e 107 136
e 107 139
e 107 142
e 107 143
e 107 148
e 108 109
e 108 110
e 108 114
e 108 117
e 108 119
e 108 122
e 108 123
e 108 125
e 108 126
e 108 130
e 108 135
e 108 136
e 108 138
e 108 139
e 108 144
e 108 147
e 109 110
e 109 113
e 109 119
e 109 121
e 109 123
e 109 125
e 109 126
e 109 133
e 109 135
e 109 142
e 109 145
e 109 147
e 109 148
e 109 150
e 110 111
e 110 113
e 110 115
e 110 117
e 110 118
e 110 119
e 110 134
e 110 140
e 110 141
e 110 143
e 111 112
e 111 118
e 111 121
e 111 131
e 111 137
e 111 138
e 111 140
e 111 149
e 111 150
e 112 113
e 112 114
e 112 119
e 112 124
e 112 125
e 112 128
e 112 129
e 112 131
e 112 133
e 112 135
e 112 136
e 112 137
e 112 143
e 112 144
e 113 114
e 113 116
e 113 119
e 113 122
e 113 124
e 113 125
e 113 128
e 113 131
e 113 136
e 113 140
e 113 142
e 113 148
e 113 149
e 114 115
e 114 116
e 114 117
e 114 122
e 114 126
e 114 128
e 114 130
e 114 133
e 114 134
e 114 135
e 114 139
e 114 140
e 114 141
e 114 145
e 114 146
e 114 149
e 115 116
e 115 122
e 115 124
e 115 125
e 115 128
e 115 130
e 115 132
e 115 134
e 115 135
e 115 136
e 115 138
e 115 141
e 115 145
e 115 147
e 115 149
e 116 117
e 116 119
e 116 126
e 116 130
e 116 136
e 116 137
e 116 138
e 116 143
e 116 145
e 116 147
e 117 118
e 117 119
e 117 121
e 117 122
e 117 124
e 117 128
e 117 129
e 117 133
e 117 136
e 117 140
e 117 143
e 117 148
e 118 119
e 118 122
e 118 123
e 118 128
e 118 133
e 118 136
e 118 139
e 118 143
e 118 144
e 118 145
e 118 146
e 118 150
e 119 120
e 119 127
e 119 136
e 119 141
e 119 144
e 119 147
e 119 150
e 120 121
e 120 125
e 120 127
e 120 128
e 120 129
e 120 134
e 120 138
e 120 141
e 121 122
e 121 123
e 121 124
e 121 127
e 121 130
e 121 134
e 121 135
e 121 139
e 121 142
e 121 143
e 121 145
e 121 148
e 122 123
e 122 126
e 122 127
e 122 129
e 122 130
e 122 143
e 122 146
e 122 148
e 123 124
e 123 125
e 123 126
e 123 131
e 123 137
e 123 142
e 123 144
e 124 125
e 124 127
e 124 128
e 124 136
e 124 142
e 124 143
e 124 147
e 124 148
e 124 149
e 125 126
e 125 130
e 125 135
e 125 137
e 125 142
e 125 149
e 126 127
e 126 131
e 126 133
e 126 137
e 126 143
e 126 144
e 126 145
e 126 149
e 127 128
e 127 134
e 127 135
e 127 146
e 127 147
e 128 129
e 128 136
e 128 138
e 128 139
e 128 140
e 128 141
e 128 145
e 129 130
e 129 131
e 129 134
e 129 136
e 129 137
e 129 138
e 129 140
e 129 142
e 130 131
e 130 132
e 130 133
e 130 144
e 131 132
e 131 133
e 131 139
e 131 141
e 131 142
e 131 145
e 131 147
e 131 148
e 132 133
e 132 135
e 132 136
e 132 139
e 132 144
e 132 146
e 132 147
e 133 134
e 133 138
e 133 140
e 133 141
e 133 147
e 133 149
e 134 135
e 134 136
e 134 140
e 134 142
e 134 143
e 134 148
e 134 149
e 135 136
e 135 137
e 135 141
e 135 146
e 136 137
e 136 139
e 136 144
e 136 147
e 137 138
e 137 139
e 137 140
e 137 143
e 138 139
e 138 144
e 138 147
e 139 140
e 139 142
e 139 144
e 139 146
e 140 141
e 140 143
e 141 142
e 141 149
e 142 143
e 142 145
e 142 149
e 143 144
e 143 146
e 144 145
e 144 150
e 145 146
e 146 147
e 147 148
e 147 150
e 148 149
e 149 150
